Welcome to the CBC MILP Solver 
Version: 2.10.7 
Build Date: Feb 14 2022 

command line - cbc inputs/new_no_tr/order/dag78_down_left_input.lp sec 1800 solve solu solutions/new_no_tr/dag78_down_left_input.lp (default strategy 1)
seconds was changed from 1e+100 to 1800
Continuous objective value is 609512 - 5.36 seconds
Cgl0002I 150 variables fixed
Cgl0003I 0 fixed, 7 tightened bounds, 1240 strengthened rows, 0 substitutions
Cgl0003I 0 fixed, 1 tightened bounds, 262 strengthened rows, 0 substitutions
Cgl0003I 0 fixed, 0 tightened bounds, 17 strengthened rows, 0 substitutions
Cgl0004I processed model has 6445 rows, 2206 columns (2206 integer (2164 of which binary)) and 21233 elements
Cutoff increment increased from 1e-05 to 0.9999
Cbc0045I 1 integer variables out of 2206 objects (2206 integer) have cost of 1 - high priority
Cbc0045I branch on satisfied Y create fake objective Y random cost Y
Cbc0038I Initial state - 1094 integers unsatisfied sum - 306.699
Cbc0038I Pass   1: (9.62 seconds) suminf.  154.46758 (887) obj. 1.07019e+06 iterations 3227
Cbc0038I Pass   2: (10.33 seconds) suminf.  105.77773 (776) obj. 1.22566e+06 iterations 1999
Cbc0038I Pass   3: (10.55 seconds) suminf.   98.81810 (749) obj. 1.16941e+06 iterations 564
Cbc0038I Pass   4: (10.58 seconds) suminf.   98.62514 (753) obj. 1.16971e+06 iterations 56
Cbc0038I Pass   5: (10.77 seconds) suminf.   99.75762 (721) obj. 1.16893e+06 iterations 495
Cbc0038I Pass   6: (10.92 seconds) suminf.   99.05227 (718) obj. 1.171e+06 iterations 337
Cbc0038I Pass   7: (10.99 seconds) suminf.   97.63350 (732) obj. 1.18282e+06 iterations 130
Cbc0038I Pass   8: (11.03 seconds) suminf.   97.93970 (741) obj. 1.18263e+06 iterations 79
Cbc0038I Pass   9: (11.13 seconds) suminf.   96.14717 (708) obj. 1.16486e+06 iterations 197
Cbc0038I Pass  10: (11.20 seconds) suminf.   96.76967 (737) obj. 1.15982e+06 iterations 145
Cbc0038I Pass  11: (11.34 seconds) suminf.   97.65832 (732) obj. 1.15065e+06 iterations 291
Cbc0038I Pass  12: (11.49 seconds) suminf.   95.63166 (700) obj. 1.15378e+06 iterations 340
Cbc0038I Pass  13: (11.56 seconds) suminf.   95.56343 (695) obj. 1.15657e+06 iterations 153
Cbc0038I Pass  14: (11.61 seconds) suminf.   95.51940 (703) obj. 1.15269e+06 iterations 112
Cbc0038I Pass  15: (11.71 seconds) suminf.   95.95441 (704) obj. 1.15321e+06 iterations 197
Cbc0038I Pass  16: (11.75 seconds) suminf.   96.18825 (710) obj. 1.15234e+06 iterations 82
Cbc0038I Pass  17: (12.00 seconds) suminf.   90.14860 (711) obj. 1.19414e+06 iterations 725
Cbc0038I Pass  18: (12.15 seconds) suminf.   90.58966 (676) obj. 1.21328e+06 iterations 327
Cbc0038I Pass  19: (12.18 seconds) suminf.   90.68926 (665) obj. 1.21165e+06 iterations 58
Cbc0038I Pass  20: (12.32 seconds) suminf.   88.20256 (701) obj. 1.22305e+06 iterations 316
Cbc0038I Pass  21: (12.42 seconds) suminf.   87.68478 (699) obj. 1.22042e+06 iterations 228
Cbc0038I Pass  22: (12.58 seconds) suminf.   88.01727 (666) obj. 1.23079e+06 iterations 360
Cbc0038I Pass  23: (12.68 seconds) suminf.   86.74969 (728) obj. 1.22715e+06 iterations 226
Cbc0038I Pass  24: (12.70 seconds) suminf.   86.56256 (725) obj. 1.22799e+06 iterations 45
Cbc0038I Pass  25: (12.93 seconds) suminf.   86.95528 (601) obj. 1.28914e+06 iterations 661
Cbc0038I Pass  26: (12.98 seconds) suminf.   87.15322 (599) obj. 1.28932e+06 iterations 125
Cbc0038I Pass  27: (13.13 seconds) suminf.   85.73529 (609) obj. 1.36806e+06 iterations 400
Cbc0038I Pass  28: (13.24 seconds) suminf.   84.64786 (614) obj. 1.3943e+06 iterations 279
Cbc0038I Pass  29: (13.26 seconds) suminf.   84.66475 (612) obj. 1.39547e+06 iterations 32
Cbc0038I Pass  30: (13.37 seconds) suminf.   82.37863 (590) obj. 1.39291e+06 iterations 281
Cbc0038I Pass  31: (13.40 seconds) suminf.   83.03693 (586) obj. 1.39372e+06 iterations 54
Cbc0038I Pass  32: (13.52 seconds) suminf.   81.49981 (598) obj. 1.39162e+06 iterations 320
Cbc0038I Pass  33: (13.55 seconds) suminf.   81.39202 (596) obj. 1.39602e+06 iterations 84
Cbc0038I Pass  34: (13.56 seconds) suminf.   81.82483 (596) obj. 1.39643e+06 iterations 13
Cbc0038I Pass  35: (13.59 seconds) suminf.   81.04860 (596) obj. 1.39477e+06 iterations 73
Cbc0038I Pass  36: (13.61 seconds) suminf.   81.91342 (598) obj. 1.39643e+06 iterations 58
Cbc0038I Pass  37: (13.64 seconds) suminf.   81.65599 (594) obj. 1.39542e+06 iterations 57
Cbc0038I Pass  38: (14.23 seconds) suminf.   96.37348 (594) obj. 1.73423e+06 iterations 2122
Cbc0038I Pass  39: (14.67 seconds) suminf.   73.97579 (554) obj. 1.53318e+06 iterations 1547
Cbc0038I Pass  40: (14.78 seconds) suminf.   71.47285 (555) obj. 1.53922e+06 iterations 254
Cbc0038I Pass  41: (14.80 seconds) suminf.   71.12164 (556) obj. 1.53931e+06 iterations 45
Cbc0038I Pass  42: (14.89 seconds) suminf.   72.66109 (535) obj. 1.53647e+06 iterations 215
Cbc0038I Pass  43: (14.95 seconds) suminf.   70.62917 (540) obj. 1.53634e+06 iterations 149
Cbc0038I Pass  44: (15.07 seconds) suminf.   70.40067 (527) obj. 1.53616e+06 iterations 284
Cbc0038I Pass  45: (15.17 seconds) suminf.   69.84252 (538) obj. 1.53527e+06 iterations 254
Cbc0038I Pass  46: (15.19 seconds) suminf.   69.38444 (540) obj. 1.53526e+06 iterations 34
Cbc0038I Pass  47: (15.37 seconds) suminf.   64.90850 (526) obj. 1.58857e+06 iterations 552
Cbc0038I Pass  48: (15.49 seconds) suminf.   58.41709 (488) obj. 1.63675e+06 iterations 322
Cbc0038I Pass  49: (15.58 seconds) suminf.   59.57724 (508) obj. 1.6221e+06 iterations 229
Cbc0038I Pass  50: (15.90 seconds) suminf.   58.50894 (488) obj. 1.59284e+06 iterations 1162
Cbc0038I Pass  51: (16.00 seconds) suminf.   57.65406 (519) obj. 1.63329e+06 iterations 240
Cbc0038I Pass  52: (16.01 seconds) suminf.   57.62890 (520) obj. 1.63335e+06 iterations 11
Cbc0038I Pass  53: (16.24 seconds) suminf.   53.69688 (555) obj. 1.62826e+06 iterations 822
Cbc0038I Pass  54: (16.26 seconds) suminf.   53.13568 (542) obj. 1.63205e+06 iterations 33
Cbc0038I Pass  55: (16.44 seconds) suminf.   49.97794 (487) obj. 1.62905e+06 iterations 564
Cbc0038I Pass  56: (16.47 seconds) suminf.   49.42133 (484) obj. 1.62914e+06 iterations 60
Cbc0038I Pass  57: (16.71 seconds) suminf.   45.54931 (486) obj. 1.61836e+06 iterations 830
Cbc0038I Pass  58: (16.76 seconds) suminf.   45.55054 (479) obj. 1.61838e+06 iterations 122
Cbc0038I Pass  59: (16.91 seconds) suminf.   45.30228 (471) obj. 1.62256e+06 iterations 502
Cbc0038I Pass  60: (16.93 seconds) suminf.   45.43419 (476) obj. 1.62238e+06 iterations 24
Cbc0038I Pass  61: (17.10 seconds) suminf.   42.61916 (483) obj. 1.82499e+06 iterations 644
Cbc0038I Pass  62: (17.13 seconds) suminf.   42.22380 (425) obj. 1.87075e+06 iterations 63
Cbc0038I Pass  63: (17.25 seconds) suminf.   39.76540 (415) obj. 1.86628e+06 iterations 395
Cbc0038I Pass  64: (17.34 seconds) suminf.   36.84168 (406) obj. 1.86316e+06 iterations 207
Cbc0038I Pass  65: (17.40 seconds) suminf.   36.39366 (411) obj. 1.8622e+06 iterations 133
Cbc0038I Pass  66: (17.50 seconds) suminf.   36.92645 (391) obj. 1.86158e+06 iterations 266
Cbc0038I Pass  67: (17.56 seconds) suminf.   36.02262 (392) obj. 1.8615e+06 iterations 81
Cbc0038I Pass  68: (17.75 seconds) suminf.   38.01034 (372) obj. 1.86452e+06 iterations 684
Cbc0038I Pass  69: (17.85 seconds) suminf.   38.10292 (382) obj. 1.8658e+06 iterations 239
Cbc0038I Pass  70: (17.99 seconds) suminf.   33.57053 (370) obj. 1.8628e+06 iterations 558
Cbc0038I Pass  71: (18.08 seconds) suminf.   33.45679 (364) obj. 1.85668e+06 iterations 260
Cbc0038I Pass  72: (18.23 seconds) suminf.   33.48663 (354) obj. 1.61802e+06 iterations 567
Cbc0038I Pass  73: (18.31 seconds) suminf.   31.70229 (355) obj. 1.61849e+06 iterations 229
Cbc0038I Pass  74: (18.49 seconds) suminf.   24.13679 (279) obj. 1.62626e+06 iterations 664
Cbc0038I Pass  75: (18.53 seconds) suminf.   24.50760 (275) obj. 1.62625e+06 iterations 92
Cbc0038I Pass  76: (18.60 seconds) suminf.   24.41263 (276) obj. 1.62601e+06 iterations 178
Cbc0038I Pass  77: (18.62 seconds) suminf.   24.60080 (305) obj. 1.62605e+06 iterations 69
Cbc0038I Pass  78: (18.73 seconds) suminf.   22.64360 (348) obj. 1.63784e+06 iterations 374
Cbc0038I Pass  79: (18.82 seconds) suminf.   21.85749 (366) obj. 1.64147e+06 iterations 279
Cbc0038I Pass  80: (18.87 seconds) suminf.   21.20720 (313) obj. 1.63152e+06 iterations 115
Cbc0038I Pass  81: (18.99 seconds) suminf.   23.19191 (298) obj. 1.63853e+06 iterations 482
Cbc0038I Pass  82: (19.03 seconds) suminf.   21.45267 (306) obj. 1.62986e+06 iterations 156
Cbc0038I Pass  83: (19.08 seconds) suminf.   20.59061 (314) obj. 1.629e+06 iterations 172
Cbc0038I Pass  84: (19.11 seconds) suminf.   19.88523 (313) obj. 1.62801e+06 iterations 100
Cbc0038I Pass  85: (19.16 seconds) suminf.   18.96896 (315) obj. 1.63956e+06 iterations 153
Cbc0038I Pass  86: (19.39 seconds) suminf.   11.88027 (236) obj. 1.57213e+06 iterations 1147
Cbc0038I Pass  87: (19.42 seconds) suminf.   11.93072 (240) obj. 1.57184e+06 iterations 88
Cbc0038I Pass  88: (19.56 seconds) suminf.   11.60594 (246) obj. 1.57257e+06 iterations 653
Cbc0038I Pass  89: (19.58 seconds) suminf.   10.87910 (251) obj. 1.57274e+06 iterations 56
Cbc0038I Pass  90: (19.69 seconds) suminf.   11.10974 (228) obj. 1.57777e+06 iterations 392
Cbc0038I Pass  91: (19.71 seconds) suminf.   10.54469 (230) obj. 1.57905e+06 iterations 46
Cbc0038I Pass  92: (19.72 seconds) suminf.   10.31763 (228) obj. 1.57759e+06 iterations 8
Cbc0038I Pass  93: (19.95 seconds) suminf.    9.61522 (204) obj. 1.56542e+06 iterations 1249
Cbc0038I Pass  94: (19.97 seconds) suminf.    9.98068 (189) obj. 1.56529e+06 iterations 19
Cbc0038I Pass  95: (20.18 seconds) suminf.    8.67918 (200) obj. 1.35441e+06 iterations 1115
Cbc0038I Pass  96: (20.23 seconds) suminf.    8.70976 (209) obj. 1.35382e+06 iterations 201
Cbc0038I Pass  97: (20.48 seconds) suminf.    7.60597 (169) obj. 1.14188e+06 iterations 1368
Cbc0038I Pass  98: (20.49 seconds) suminf.    7.60597 (169) obj. 1.14188e+06 iterations 15
Cbc0038I Pass  99: (20.67 seconds) suminf.   15.76343 (167) obj. 1.15989e+06 iterations 833
Cbc0038I Pass 100: (21.21 seconds) suminf.   96.42941 (487) obj. 1.69213e+06 iterations 2426
Cbc0038I No solution found this major pass
Cbc0038I Before mini branch and bound, 416 integers at bound fixed and 0 continuous
Cbc0038I Full problem 6445 rows 2206 columns, reduced to 5236 rows 1709 columns - too large
Cbc0038I Mini branch and bound did not improve solution (21.48 seconds)
Cbc0038I After 21.48 seconds - Feasibility pump exiting - took 13.09 seconds
Cbc0031I 47 added rows had average density of 8.3829787
Cbc0013I At root node, 47 cuts changed objective from 615289.21 to 720896 in 10 passes
Cbc0014I Cut generator 0 (Probing) - 17 row cuts average 3.4 elements, 6 column cuts (6 active)  in 0.264 seconds - new frequency is 1
Cbc0014I Cut generator 1 (Gomory) - 100 row cuts average 126.9 elements, 0 column cuts (0 active)  in 1.180 seconds - new frequency is 1
Cbc0014I Cut generator 2 (Knapsack) - 7 row cuts average 5.0 elements, 0 column cuts (0 active)  in 0.025 seconds - new frequency is 1
Cbc0014I Cut generator 3 (Clique) - 0 row cuts average 0.0 elements, 0 column cuts (0 active)  in 0.048 seconds - new frequency is -100
Cbc0014I Cut generator 4 (MixedIntegerRounding2) - 2 row cuts average 16.0 elements, 0 column cuts (0 active)  in 0.030 seconds - new frequency is -100
Cbc0014I Cut generator 5 (FlowCover) - 0 row cuts average 0.0 elements, 0 column cuts (0 active)  in 0.018 seconds - new frequency is -100
Cbc0014I Cut generator 6 (TwoMirCuts) - 219 row cuts average 40.9 elements, 0 column cuts (0 active)  in 0.573 seconds - new frequency is 1
Cbc0010I After 0 nodes, 1 on tree, 1e+50 best solution, best possible 720896 (47.10 seconds)
Cbc0010I After 100 nodes, 18 on tree, 1e+50 best solution, best possible 737280 (296.31 seconds)
Cbc0010I After 200 nodes, 14 on tree, 1e+50 best solution, best possible 737280 (540.54 seconds)
Cbc0010I After 300 nodes, 3 on tree, 1e+50 best solution, best possible 737280 (720.95 seconds)
Cbc0010I After 400 nodes, 5 on tree, 1e+50 best solution, best possible 737280 (995.35 seconds)
Cbc0010I After 500 nodes, 4 on tree, 1e+50 best solution, best possible 737280 (1291.81 seconds)
Cbc0010I After 600 nodes, 3 on tree, 1e+50 best solution, best possible 737280 (1566.49 seconds)
Cbc0020I Exiting on maximum time
Cbc0005I Partial search - best objective 1e+50 (best possible 737280), took 2661364 iterations and 671 nodes (1803.96 seconds)
Cbc0032I Strong branching done 5902 times (505935 iterations), fathomed 48 nodes and fixed 763 variables
Cbc0035I Maximum depth 64, 0 variables fixed on reduced cost
Cuts at root node changed objective from 615289 to 720896
Probing was tried 424 times and created 2447 cuts of which 0 were active after adding rounds of cuts (2.213 seconds)
Gomory was tried 421 times and created 453 cuts of which 0 were active after adding rounds of cuts (8.072 seconds)
Knapsack was tried 421 times and created 672 cuts of which 0 were active after adding rounds of cuts (0.798 seconds)
Clique was tried 10 times and created 0 cuts of which 0 were active after adding rounds of cuts (0.048 seconds)
MixedIntegerRounding2 was tried 10 times and created 2 cuts of which 0 were active after adding rounds of cuts (0.030 seconds)
FlowCover was tried 10 times and created 0 cuts of which 0 were active after adding rounds of cuts (0.018 seconds)
TwoMirCuts was tried 421 times and created 3678 cuts of which 0 were active after adding rounds of cuts (2.935 seconds)
ZeroHalf was tried 1 times and created 0 cuts of which 0 were active after adding rounds of cuts (0.109 seconds)
ImplicationCuts was tried 49 times and created 102 cuts of which 0 were active after adding rounds of cuts (0.007 seconds)

Result - Stopped on time limit

No feasible solution found
Lower bound:                    737279.998
Enumerated nodes:               671
Total iterations:               2661364
Time (CPU seconds):             1803.96
Time (Wallclock seconds):       1804.24

Total time (CPU seconds):       1803.98   (Wallclock seconds):       1804.27

